GLKH-1.1/TMP/mtspf.pid3611.atsp
NAME : mtspf.pid3611.gtsp
TYPE : ATSP
DIMENSION : 65
EDGE_WEIGHT_TYPE : EXPLICIT
EDGE_WEIGHT_FORMAT : FULL_MATRIX
EDGE_WEIGHT_SECTION
999999 5368709 5368709 5368709 5368709 5368709 5368709 5368709 5368709 5368709 5368709 5368709 5368709 5368709 5368709 5368709 5368709 5368709 5368709 5368709 5368709 5368709 5368709 5368709 5368709 5368816 5368817 5368816 5368815 5368775 5368774 5368773 5368774 5368736 5368737 5368736 5368735 5368739 5368740 5368739 5368738 5368729 5368730 5368731 5368730 5368784 5368783 5368784 5368785 5368732 5368733 5368732 5368731 5368751 5368752 5368753 5368752 5368741 5368742 5368741 5368740 5368769 5368770 5368769 5368768 
5368709 999999 5368709 5368709 5368709 5368709 5368709 5368709 5368709 5368709 5368709 5368709 5368709 5368709 5368709 5368709 5368709 5368709 5368709 5368709 5368709 5368709 5368709 5368709 5368709 5368838 5368839 5368838 5368837 5368763 5368762 5368761 5368762 5368760 5368761 5368760 5368759 5368713 5368714 5368713 5368712 5368751 5368752 5368753 5368752 5368806 5368805 5368806 5368807 5368756 5368757 5368756 5368755 5368773 5368774 5368775 5368774 5368729 5368730 5368729 5368728 5368757 5368758 5368757 5368756 
5368709 5368709 999999 5368709 5368709 5368709 5368709 5368709 5368709 5368709 5368709 5368709 5368709 5368709 5368709 5368709 5368709 5368709 5368709 5368709 5368709 5368709 5368709 5368709 5368709 5368858 5368859 5368858 5368857 5368775 5368774 5368773 5368774 5368780 5368781 5368780 5368779 5368745 5368746 5368745 5368744 5368771 5368772 5368773 5368772 5368826 5368825 5368826 5368827 5368776 5368777 5368776 5368775 5368793 5368794 5368795 5368794 5368727 5368726 5368727 5368728 5368769 5368770 5368769 5368768 
5368709 5368709 5368709 999999 5368709 5368709 5368709 5368709 5368709 5368709 5368709 5368709 5368709 5368709 5368709 5368709 5368709 5368709 5368709 5368709 5368709 5368709 5368709 5368709 5368709 5368758 5368759 5368758 5368757 5368829 5368828 5368827 5368828 5368794 5368795 5368794 5368793 5368793 5368794 5368793 5368792 5368755 5368756 5368757 5368756 5368726 5368725 5368726 5368727 5368790 5368791 5368790 5368789 5368727 5368726 5368727 5368728 5368795 5368796 5368795 5368794 5368823 5368824 5368823 5368822 
5368709 5368709 5368709 5368709 999999 5368709 5368709 5368709 5368709 5368709 5368709 5368709 5368709 5368709 5368709 5368709 5368709 5368709 5368709 5368709 5368709 5368709 5368709 5368709 5368709 5368864 5368865 5368864 5368863 5368723 5368722 5368721 5368722 5368786 5368787 5368786 5368785 5368751 5368752 5368751 5368750 5368777 5368778 5368779 5368778 5368832 5368831 5368832 5368833 5368782 5368783 5368782 5368781 5368799 5368800 5368801 5368800 5368747 5368748 5368747 5368746 5368717 5368718 5368717 5368716 
5368709 5368709 5368709 5368709 5368709 999999 5368709 5368709 5368709 5368709 5368709 5368709 5368709 5368709 5368709 5368709 5368709 5368709 5368709 5368709 5368709 5368709 5368709 5368709 5368709 5368841 5368842 5368841 5368840 5368758 5368757 5368756 5368757 5368763 5368764 5368763 5368762 5368728 5368729 5368728 5368727 5368754 5368755 5368756 5368755 5368809 5368808 5368809 5368810 5368759 5368760 5368759 5368758 5368776 5368777 5368778 5368777 5368718 5368719 5368718 5368717 5368752 5368753 5368752 5368751 
5368709 5368709 5368709 5368709 5368709 5368709 999999 5368709 5368709 5368709 5368709 5368709 5368709 5368709 5368709 5368709 5368709 5368709 5368709 5368709 5368709 5368709 5368709 5368709 5368709 5368872 5368873 5368872 5368871 5368717 5368716 5368715 5368716 5368794 5368795 5368794 5368793 5368759 5368760 5368759 5368758 5368785 5368786 5368787 5368786 5368840 5368839 5368840 5368841 5368790 5368791 5368790 5368789 5368807 5368808 5368809 5368808 5368755 5368756 5368755 5368754 5368713 5368712 5368713 5368714 
5368709 5368709 5368709 5368709 5368709 5368709 5368709 999999 5368709 5368709 5368709 5368709 5368709 5368709 5368709 5368709 5368709 5368709 5368709 5368709 5368709 5368709 5368709 5368709 5368709 5368833 5368834 5368833 5368832 5368754 5368753 5368752 5368753 5368755 5368756 5368755 5368754 5368720 5368721 5368720 5368719 5368746 5368747 5368748 5368747 5368801 5368800 5368801 5368802 5368751 5368752 5368751 5368750 5368768 5368769 5368770 5368769 5368722 5368723 5368722 5368721 5368748 5368749 5368748 5368747 
5368709 5368709 5368709 5368709 5368709 5368709 5368709 5368709 999999 5368709 5368709 5368709 5368709 5368709 5368709 5368709 5368709 5368709 5368709 5368709 5368709 5368709 5368709 5368709 5368709 5368821 5368822 5368821 5368820 5368764 5368763 5368762 5368763 5368743 5368744 5368743 5368742 5368728 5368729 5368728 5368727 5368734 5368735 5368736 5368735 5368789 5368788 5368789 5368790 5368739 5368740 5368739 5368738 5368756 5368757 5368758 5368757 5368730 5368731 5368730 5368729 5368758 5368759 5368758 5368757 
5368709 5368709 5368709 5368709 5368709 5368709 5368709 5368709 5368709 999999 5368709 5368709 5368709 5368709 5368709 5368709 5368709 5368709 5368709 5368709 5368709 5368709 5368709 5368709 5368709 5368865 5368866 5368865 5368864 5368788 5368787 5368786 5368787 5368787 5368788 5368787 5368786 5368736 5368735 5368736 5368737 5368778 5368779 5368780 5368779 5368833 5368832 5368833 5368834 5368783 5368784 5368783 5368782 5368800 5368801 5368802 5368801 5368754 5368755 5368754 5368753 5368782 5368783 5368782 5368781 
5368709 5368709 5368709 5368709 5368709 5368709 5368709 5368709 5368709 5368709 999999 5368709 5368709 5368709 5368709 5368709 5368709 5368709 5368709 5368709 5368709 5368709 5368709 5368709 5368709 5368793 5368794 5368793 5368792 5368794 5368793 5368792 5368793 5368759 5368760 5368759 5368758 5368758 5368759 5368758 5368757 5368724 5368725 5368724 5368723 5368761 5368760 5368761 5368762 5368755 5368756 5368755 5368754 5368728 5368729 5368730 5368729 5368760 5368761 5368760 5368759 5368788 5368789 5368788 5368787 
5368709 5368709 5368709 5368709 5368709 5368709 5368709 5368709 5368709 5368709 5368709 999999 5368709 5368709 5368709 5368709 5368709 5368709 5368709 5368709 5368709 5368709 5368709 5368709 5368709 5368837 5368838 5368837 5368836 5368794 5368793 5368792 5368793 5368715 5368716 5368715 5368714 5368758 5368759 5368758 5368757 5368750 5368751 5368752 5368751 5368805 5368804 5368805 5368806 5368711 5368710 5368711 5368712 5368772 5368773 5368774 5368773 5368760 5368761 5368760 5368759 5368788 5368789 5368788 5368787 
5368709 5368709 5368709 5368709 5368709 5368709 5368709 5368709 5368709 5368709 5368709 5368709 999999 5368709 5368709 5368709 5368709 5368709 5368709 5368709 5368709 5368709 5368709 5368709 5368709 5368840 5368841 5368840 5368839 5368765 5368764 5368763 5368764 5368762 5368763 5368762 5368761 5368711 5368712 5368713 5368712 5368753 5368754 5368755 5368754 5368808 5368807 5368808 5368809 5368758 5368759 5368758 5368757 5368775 5368776 5368777 5368776 5368731 5368732 5368731 5368730 5368759 5368760 5368759 5368758 
5368709 5368709 5368709 5368709 5368709 5368709 5368709 5368709 5368709 5368709 5368709 5368709 5368709 999999 5368709 5368709 5368709 5368709 5368709 5368709 5368709 5368709 5368709 5368709 5368709 5368836 5368837 5368836 5368835 5368793 5368792 5368791 5368792 5368716 5368717 5368718 5368717 5368757 5368758 5368757 5368756 5368749 5368750 5368751 5368750 5368804 5368803 5368804 5368805 5368712 5368713 5368714 5368713 5368771 5368772 5368773 5368772 5368759 5368760 5368759 5368758 5368787 5368788 5368787 5368786 
5368709 5368709 5368709 5368709 5368709 5368709 5368709 5368709 5368709 5368709 5368709 5368709 5368709 5368709 999999 5368709 5368709 5368709 5368709 5368709 5368709 5368709 5368709 5368709 5368709 5368826 5368827 5368826 5368825 5368783 5368782 5368781 5368782 5368726 5368727 5368726 5368725 5368747 5368748 5368747 5368746 5368739 5368740 5368741 5368740 5368794 5368793 5368794 5368795 5368722 5368723 5368722 5368721 5368761 5368762 5368763 5368762 5368749 5368750 5368749 5368748 5368777 5368778 5368777 5368776 
5368709 5368709 5368709 5368709 5368709 5368709 5368709 5368709 5368709 5368709 5368709 5368709 5368709 5368709 5368709 999999 5368709 5368709 5368709 5368709 5368709 5368709 5368709 5368709 5368709 5368867 5368868 5368867 5368866 5368790 5368789 5368788 5368789 5368789 5368790 5368789 5368788 5368738 5368737 5368738 5368739 5368780 5368781 5368782 5368781 5368835 5368834 5368835 5368836 5368785 5368786 5368785 5368784 5368802 5368803 5368804 5368803 5368756 5368757 5368756 5368755 5368784 5368785 5368784 5368783 
5368709 5368709 5368709 5368709 5368709 5368709 5368709 5368709 5368709 5368709 5368709 5368709 5368709 5368709 5368709 5368709 999999 5368709 5368709 5368709 5368709 5368709 5368709 5368709 5368709 5368735 5368736 5368735 5368734 5368854 5368853 5368852 5368853 5368819 5368820 5368819 5368818 5368818 5368819 5368818 5368817 5368780 5368781 5368782 5368781 5368745 5368744 5368745 5368746 5368815 5368816 5368815 5368814 5368752 5368751 5368752 5368753 5368820 5368821 5368820 5368819 5368848 5368849 5368848 5368847 
5368709 5368709 5368709 5368709 5368709 5368709 5368709 5368709 5368709 5368709 5368709 5368709 5368709 5368709 5368709 5368709 5368709 999999 5368709 5368709 5368709 5368709 5368709 5368709 5368709 5368823 5368824 5368823 5368822 5368766 5368765 5368764 5368765 5368745 5368746 5368745 5368744 5368730 5368731 5368730 5368729 5368736 5368737 5368738 5368737 5368791 5368790 5368791 5368792 5368741 5368742 5368741 5368740 5368758 5368759 5368760 5368759 5368732 5368733 5368732 5368731 5368760 5368761 5368760 5368759 
5368709 5368709 5368709 5368709 5368709 5368709 5368709 5368709 5368709 5368709 5368709 5368709 5368709 5368709 5368709 5368709 5368709 5368709 999999 5368709 5368709 5368709 5368709 5368709 5368709 5368780 5368781 5368780 5368779 5368807 5368806 5368805 5368806 5368772 5368773 5368772 5368771 5368771 5368772 5368771 5368770 5368733 5368734 5368735 5368734 5368748 5368747 5368748 5368749 5368768 5368769 5368768 5368767 5368715 5368716 5368717 5368716 5368773 5368774 5368773 5368772 5368801 5368802 5368801 5368800 
5368709 5368709 5368709 5368709 5368709 5368709 5368709 5368709 5368709 5368709 5368709 5368709 5368709 5368709 5368709 5368709 5368709 5368709 5368709 999999 5368709 5368709 5368709 5368709 5368709 5368831 5368832 5368831 5368830 5368756 5368755 5368754 5368755 5368753 5368754 5368753 5368752 5368722 5368723 5368722 5368721 5368744 5368745 5368746 5368745 5368799 5368798 5368799 5368800 5368749 5368750 5368749 5368748 5368766 5368767 5368768 5368767 5368724 5368725 5368724 5368723 5368750 5368751 5368750 5368749 
5368709 5368709 5368709 5368709 5368709 5368709 5368709 5368709 5368709 5368709 5368709 5368709 5368709 5368709 5368709 5368709 5368709 5368709 5368709 5368709 999999 5368709 5368709 5368709 5368709 5368728 5368729 5368728 5368727 5368861 5368860 5368859 5368860 5368826 5368827 5368826 5368825 5368825 5368826 5368825 5368824 5368787 5368788 5368789 5368788 5368752 5368751 5368752 5368753 5368822 5368823 5368822 5368821 5368759 5368758 5368759 5368760 5368827 5368828 5368827 5368826 5368855 5368856 5368855 5368854 
5368709 5368709 5368709 5368709 5368709 5368709 5368709 5368709 5368709 5368709 5368709 5368709 5368709 5368709 5368709 5368709 5368709 5368709 5368709 5368709 5368709 999999 5368709 5368709 5368709 5368879 5368880 5368879 5368878 5368732 5368731 5368730 5368731 5368801 5368802 5368801 5368800 5368766 5368767 5368766 5368765 5368792 5368793 5368794 5368793 5368847 5368846 5368847 5368848 5368797 5368798 5368797 5368796 5368814 5368815 5368816 5368815 5368762 5368763 5368762 5368761 5368726 5368727 5368726 5368725 
5368709 5368709 5368709 5368709 5368709 5368709 5368709 5368709 5368709 5368709 5368709 5368709 5368709 5368709 5368709 5368709 5368709 5368709 5368709 5368709 5368709 5368709 999999 5368709 5368709 5368831 5368832 5368831 5368830 5368788 5368787 5368786 5368787 5368721 5368722 5368721 5368720 5368752 5368753 5368752 5368751 5368744 5368745 5368746 5368745 5368799 5368798 5368799 5368800 5368717 5368718 5368717 5368716 5368766 5368767 5368768 5368767 5368754 5368755 5368754 5368753 5368782 5368783 5368782 5368781 
5368709 5368709 5368709 5368709 5368709 5368709 5368709 5368709 5368709 5368709 5368709 5368709 5368709 5368709 5368709 5368709 5368709 5368709 5368709 5368709 5368709 5368709 5368709 999999 5368709 5368877 5368878 5368877 5368876 5368800 5368799 5368798 5368799 5368799 5368800 5368799 5368798 5368748 5368747 5368748 5368749 5368790 5368791 5368792 5368791 5368845 5368844 5368845 5368846 5368795 5368796 5368795 5368794 5368812 5368813 5368814 5368813 5368766 5368767 5368766 5368765 5368794 5368795 5368794 5368793 
5368709 5368709 5368709 5368709 5368709 5368709 5368709 5368709 5368709 5368709 5368709 5368709 5368709 5368709 5368709 5368709 5368709 5368709 5368709 5368709 5368709 5368709 5368709 5368709 999999 5368800 5368801 5368800 5368799 5368787 5368786 5368785 5368786 5368752 5368753 5368752 5368751 5368751 5368752 5368751 5368750 5368717 5368718 5368717 5368716 5368768 5368767 5368768 5368769 5368748 5368749 5368748 5368747 5368735 5368736 5368737 5368736 5368753 5368754 5368753 5368752 5368781 5368782 5368781 5368780 
5368709 5368709 5368709 5368709 5368709 5368709 5368709 5368709 5368709 5368709 5368709 5368709 5368709 5368709 5368709 5368709 5368709 5368709 5368709 5368709 5368709 5368709 5368709 5368709 5368709 999999 0 10737418 10737418 5368875 5368874 5368873 5368874 5368840 5368841 5368840 5368839 5368839 5368840 5368839 5368838 5368801 5368802 5368803 5368802 5368766 5368765 5368766 5368767 5368836 5368837 5368836 5368835 5368773 5368772 5368773 5368774 5368841 5368842 5368841 5368840 5368869 5368870 5368869 5368868 
5368709 5368709 5368709 5368709 5368709 5368709 5368709 5368709 5368709 5368709 5368709 5368709 5368709 5368709 5368709 5368709 5368709 5368709 5368709 5368709 5368709 5368709 5368709 5368709 5368709 10737418 999999 0 10737418 5368876 5368875 5368874 5368875 5368841 5368842 5368841 5368840 5368840 5368841 5368840 5368839 5368802 5368803 5368804 5368803 5368767 5368766 5368767 5368768 5368837 5368838 5368837 5368836 5368774 5368773 5368774 5368775 5368842 5368843 5368842 5368841 5368870 5368871 5368870 5368869 
5368709 5368709 5368709 5368709 5368709 5368709 5368709 5368709 5368709 5368709 5368709 5368709 5368709 5368709 5368709 5368709 5368709 5368709 5368709 5368709 5368709 5368709 5368709 5368709 5368709 10737418 10737418 999999 0 5368877 5368876 5368875 5368876 5368842 5368843 5368842 5368841 5368841 5368842 5368841 5368840 5368803 5368804 5368805 5368804 5368768 5368767 5368768 5368769 5368838 5368839 5368838 5368837 5368775 5368774 5368775 5368776 5368843 5368844 5368843 5368842 5368871 5368872 5368871 5368870 
5368709 5368709 5368709 5368709 5368709 5368709 5368709 5368709 5368709 5368709 5368709 5368709 5368709 5368709 5368709 5368709 5368709 5368709 5368709 5368709 5368709 5368709 5368709 5368709 5368709 0 10737418 10737418 999999 5368876 5368875 5368874 5368875 5368841 5368842 5368841 5368840 5368840 5368841 5368840 5368839 5368802 5368803 5368804 5368803 5368767 5368766 5368767 5368768 5368837 5368838 5368837 5368836 5368774 5368773 5368774 5368775 5368842 5368843 5368842 5368841 5368870 5368871 5368870 5368869 
5368709 5368709 5368709 5368709 5368709 5368709 5368709 5368709 5368709 5368709 5368709 5368709 5368709 5368709 5368709 5368709 5368709 5368709 5368709 5368709 5368709 5368709 5368709 5368709 5368709 5368875 5368876 5368875 5368874 999999 0 10737418 10737418 5368797 5368798 5368797 5368796 5368762 5368763 5368762 5368761 5368788 5368789 5368790 5368789 5368843 5368842 5368843 5368844 5368793 5368794 5368793 5368792 5368810 5368811 5368812 5368811 5368758 5368759 5368758 5368757 5368714 5368715 5368716 5368715 
5368709 5368709 5368709 5368709 5368709 5368709 5368709 5368709 5368709 5368709 5368709 5368709 5368709 5368709 5368709 5368709 5368709 5368709 5368709 5368709 5368709 5368709 5368709 5368709 5368709 5368876 5368877 5368876 5368875 10737418 999999 0 10737418 5368798 5368799 5368798 5368797 5368763 5368764 5368763 5368762 5368789 5368790 5368791 5368790 5368844 5368843 5368844 5368845 5368794 5368795 5368794 5368793 5368811 5368812 5368813 5368812 5368759 5368760 5368759 5368758 5368715 5368716 5368717 5368716 
5368709 5368709 5368709 5368709 5368709 5368709 5368709 5368709 5368709 5368709 5368709 5368709 5368709 5368709 5368709 5368709 5368709 5368709 5368709 5368709 5368709 5368709 5368709 5368709 5368709 5368875 5368876 5368875 5368874 10737418 10737418 999999 0 5368797 5368798 5368797 5368796 5368762 5368763 5368762 5368761 5368788 5368789 5368790 5368789 5368843 5368842 5368843 5368844 5368793 5368794 5368793 5368792 5368810 5368811 5368812 5368811 5368758 5368759 5368758 5368757 5368714 5368715 5368716 5368715 
5368709 5368709 5368709 5368709 5368709 5368709 5368709 5368709 5368709 5368709 5368709 5368709 5368709 5368709 5368709 5368709 5368709 5368709 5368709 5368709 5368709 5368709 5368709 5368709 5368709 5368874 5368875 5368874 5368873 0 10737418 10737418 999999 5368796 5368797 5368796 5368795 5368761 5368762 5368761 5368760 5368787 5368788 5368789 5368788 5368842 5368841 5368842 5368843 5368792 5368793 5368792 5368791 5368809 5368810 5368811 5368810 5368757 5368758 5368757 5368756 5368713 5368714 5368715 5368714 
5368709 5368709 5368709 5368709 5368709 5368709 5368709 5368709 5368709 5368709 5368709 5368709 5368709 5368709 5368709 5368709 5368709 5368709 5368709 5368709 5368709 5368709 5368709 5368709 5368709 5368840 5368841 5368840 5368839 5368797 5368796 5368795 5368796 999999 0 10737418 10737418 5368761 5368762 5368761 5368760 5368753 5368754 5368755 5368754 5368808 5368807 5368808 5368809 5368714 5368713 5368714 5368715 5368775 5368776 5368777 5368776 5368763 5368764 5368763 5368762 5368791 5368792 5368791 5368790 
5368709 5368709 5368709 5368709 5368709 5368709 5368709 5368709 5368709 5368709 5368709 5368709 5368709 5368709 5368709 5368709 5368709 5368709 5368709 5368709 5368709 5368709 5368709 5368709 5368709 5368841 5368842 5368841 5368840 5368798 5368797 5368796 5368797 10737418 999999 0 10737418 5368762 5368763 5368762 5368761 5368754 5368755 5368756 5368755 5368809 5368808 5368809 5368810 5368715 5368714 5368715 5368716 5368776 5368777 5368778 5368777 5368764 5368765 5368764 5368763 5368792 5368793 5368792 5368791 
5368709 5368709 5368709 5368709 5368709 5368709 5368709 5368709 5368709 5368709 5368709 5368709 5368709 5368709 5368709 5368709 5368709 5368709 5368709 5368709 5368709 5368709 5368709 5368709 5368709 5368842 5368843 5368842 5368841 5368799 5368798 5368797 5368798 10737418 10737418 999999 0 5368763 5368764 5368763 5368762 5368755 5368756 5368757 5368756 5368810 5368809 5368810 5368811 5368716 5368715 5368716 5368717 5368777 5368778 5368779 5368778 5368765 5368766 5368765 5368764 5368793 5368794 5368793 5368792 
5368709 5368709 5368709 5368709 5368709 5368709 5368709 5368709 5368709 5368709 5368709 5368709 5368709 5368709 5368709 5368709 5368709 5368709 5368709 5368709 5368709 5368709 5368709 5368709 5368709 5368841 5368842 5368841 5368840 5368798 5368797 5368796 5368797 0 10737418 10737418 999999 5368762 5368763 5368762 5368761 5368754 5368755 5368756 5368755 5368809 5368808 5368809 5368810 5368715 5368714 5368715 5368716 5368776 5368777 5368778 5368777 5368764 5368765 5368764 5368763 5368792 5368793 5368792 5368791 
5368709 5368709 5368709 5368709 5368709 5368709 5368709 5368709 5368709 5368709 5368709 5368709 5368709 5368709 5368709 5368709 5368709 5368709 5368709 5368709 5368709 5368709 5368709 5368709 5368709 5368839 5368840 5368839 5368838 5368762 5368761 5368760 5368761 5368761 5368762 5368761 5368760 999999 0 10737418 10737418 5368752 5368753 5368754 5368753 5368807 5368806 5368807 5368808 5368757 5368758 5368757 5368756 5368774 5368775 5368776 5368775 5368728 5368729 5368728 5368727 5368756 5368757 5368756 5368755 
5368709 5368709 5368709 5368709 5368709 5368709 5368709 5368709 5368709 5368709 5368709 5368709 5368709 5368709 5368709 5368709 5368709 5368709 5368709 5368709 5368709 5368709 5368709 5368709 5368709 5368840 5368841 5368840 5368839 5368763 5368762 5368761 5368762 5368762 5368763 5368762 5368761 10737418 999999 0 10737418 5368753 5368754 5368755 5368754 5368808 5368807 5368808 5368809 5368758 5368759 5368758 5368757 5368775 5368776 5368777 5368776 5368729 5368730 5368729 5368728 5368757 5368758 5368757 5368756 
5368709 5368709 5368709 5368709 5368709 5368709 5368709 5368709 5368709 5368709 5368709 5368709 5368709 5368709 5368709 5368709 5368709 5368709 5368709 5368709 5368709 5368709 5368709 5368709 5368709 5368841 5368842 5368841 5368840 5368764 5368763 5368762 5368763 5368763 5368764 5368763 5368762 10737418 10737418 999999 0 5368754 5368755 5368756 5368755 5368809 5368808 5368809 5368810 5368759 5368760 5368759 5368758 5368776 5368777 5368778 5368777 5368730 5368731 5368730 5368729 5368758 5368759 5368758 5368757 
5368709 5368709 5368709 5368709 5368709 5368709 5368709 5368709 5368709 5368709 5368709 5368709 5368709 5368709 5368709 5368709 5368709 5368709 5368709 5368709 5368709 5368709 5368709 5368709 5368709 5368840 5368841 5368840 5368839 5368763 5368762 5368761 5368762 5368762 5368763 5368762 5368761 0 10737418 10737418 999999 5368753 5368754 5368755 5368754 5368808 5368807 5368808 5368809 5368758 5368759 5368758 5368757 5368775 5368776 5368777 5368776 5368729 5368730 5368729 5368728 5368757 5368758 5368757 5368756 
5368709 5368709 5368709 5368709 5368709 5368709 5368709 5368709 5368709 5368709 5368709 5368709 5368709 5368709 5368709 5368709 5368709 5368709 5368709 5368709 5368709 5368709 5368709 5368709 5368709 5368803 5368804 5368803 5368802 5368790 5368789 5368788 5368789 5368755 5368756 5368755 5368754 5368754 5368755 5368754 5368753 999999 0 10737418 10737418 5368771 5368770 5368771 5368772 5368751 5368752 5368751 5368750 5368738 5368739 5368740 5368739 5368756 5368757 5368756 5368755 5368784 5368785 5368784 5368783 
5368709 5368709 5368709 5368709 5368709 5368709 5368709 5368709 5368709 5368709 5368709 5368709 5368709 5368709 5368709 5368709 5368709 5368709 5368709 5368709 5368709 5368709 5368709 5368709 5368709 5368802 5368803 5368802 5368801 5368789 5368788 5368787 5368788 5368754 5368755 5368754 5368753 5368753 5368754 5368753 5368752 10737418 999999 0 10737418 5368770 5368769 5368770 5368771 5368750 5368751 5368750 5368749 5368737 5368738 5368739 5368738 5368755 5368756 5368755 5368754 5368783 5368784 5368783 5368782 
5368709 5368709 5368709 5368709 5368709 5368709 5368709 5368709 5368709 5368709 5368709 5368709 5368709 5368709 5368709 5368709 5368709 5368709 5368709 5368709 5368709 5368709 5368709 5368709 5368709 5368803 5368804 5368803 5368802 5368790 5368789 5368788 5368789 5368755 5368756 5368755 5368754 5368754 5368755 5368754 5368753 10737418 10737418 999999 0 5368771 5368770 5368771 5368772 5368751 5368752 5368751 5368750 5368738 5368739 5368740 5368739 5368756 5368757 5368756 5368755 5368784 5368785 5368784 5368783 
5368709 5368709 5368709 5368709 5368709 5368709 5368709 5368709 5368709 5368709 5368709 5368709 5368709 5368709 5368709 5368709 5368709 5368709 5368709 5368709 5368709 5368709 5368709 5368709 5368709 5368804 5368805 5368804 5368803 5368791 5368790 5368789 5368790 5368756 5368757 5368756 5368755 5368755 5368756 5368755 5368754 0 10737418 10737418 999999 5368772 5368771 5368772 5368773 5368752 5368753 5368752 5368751 5368739 5368740 5368741 5368740 5368757 5368758 5368757 5368756 5368785 5368786 5368785 5368784 
5368709 5368709 5368709 5368709 5368709 5368709 5368709 5368709 5368709 5368709 5368709 5368709 5368709 5368709 5368709 5368709 5368709 5368709 5368709 5368709 5368709 5368709 5368709 5368709 5368709 5368768 5368769 5368768 5368767 5368845 5368844 5368843 5368844 5368810 5368811 5368810 5368809 5368809 5368810 5368809 5368808 5368771 5368772 5368773 5368772 999999 0 10737418 10737418 5368806 5368807 5368806 5368805 5368743 5368742 5368743 5368744 5368811 5368812 5368811 5368810 5368839 5368840 5368839 5368838 
5368709 5368709 5368709 5368709 5368709 5368709 5368709 5368709 5368709 5368709 5368709 5368709 5368709 5368709 5368709 5368709 5368709 5368709 5368709 5368709 5368709 5368709 5368709 5368709 5368709 5368767 5368768 5368767 5368766 5368844 5368843 5368842 5368843 5368809 5368810 5368809 5368808 5368808 5368809 5368808 5368807 5368770 5368771 5368772 5368771 10737418 999999 0 10737418 5368805 5368806 5368805 5368804 5368742 5368741 5368742 5368743 5368810 5368811 5368810 5368809 5368838 5368839 5368838 5368837 
5368709 5368709 5368709 5368709 5368709 5368709 5368709 5368709 5368709 5368709 5368709 5368709 5368709 5368709 5368709 5368709 5368709 5368709 5368709 5368709 5368709 5368709 5368709 5368709 5368709 5368766 5368767 5368766 5368765 5368843 5368842 5368841 5368842 5368808 5368809 5368808 5368807 5368807 5368808 5368807 5368806 5368769 5368770 5368771 5368770 10737418 10737418 999999 0 5368804 5368805 5368804 5368803 5368741 5368740 5368741 5368742 5368809 5368810 5368809 5368808 5368837 5368838 5368837 5368836 
5368709 5368709 5368709 5368709 5368709 5368709 5368709 5368709 5368709 5368709 5368709 5368709 5368709 5368709 5368709 5368709 5368709 5368709 5368709 5368709 5368709 5368709 5368709 5368709 5368709 5368767 5368768 5368767 5368766 5368844 5368843 5368842 5368843 5368809 5368810 5368809 5368808 5368808 5368809 5368808 5368807 5368770 5368771 5368772 5368771 0 10737418 10737418 999999 5368805 5368806 5368805 5368804 5368742 5368741 5368742 5368743 5368810 5368811 5368810 5368809 5368838 5368839 5368838 5368837 
5368709 5368709 5368709 5368709 5368709 5368709 5368709 5368709 5368709 5368709 5368709 5368709 5368709 5368709 5368709 5368709 5368709 5368709 5368709 5368709 5368709 5368709 5368709 5368709 5368709 5368836 5368837 5368836 5368835 5368793 5368792 5368791 5368792 5368716 5368717 5368716 5368715 5368757 5368758 5368757 5368756 5368749 5368750 5368751 5368750 5368804 5368803 5368804 5368805 999999 0 10737418 10737418 5368771 5368772 5368773 5368772 5368759 5368760 5368759 5368758 5368787 5368788 5368787 5368786 
5368709 5368709 5368709 5368709 5368709 5368709 5368709 5368709 5368709 5368709 5368709 5368709 5368709 5368709 5368709 5368709 5368709 5368709 5368709 5368709 5368709 5368709 5368709 5368709 5368709 5368837 5368838 5368837 5368836 5368794 5368793 5368792 5368793 5368715 5368716 5368715 5368714 5368758 5368759 5368758 5368757 5368750 5368751 5368752 5368751 5368805 5368804 5368805 5368806 10737418 999999 0 10737418 5368772 5368773 5368774 5368773 5368760 5368761 5368760 5368759 5368788 5368789 5368788 5368787 
5368709 5368709 5368709 5368709 5368709 5368709 5368709 5368709 5368709 5368709 5368709 5368709 5368709 5368709 5368709 5368709 5368709 5368709 5368709 5368709 5368709 5368709 5368709 5368709 5368709 5368838 5368839 5368838 5368837 5368795 5368794 5368793 5368794 5368714 5368715 5368714 5368713 5368759 5368760 5368759 5368758 5368751 5368752 5368753 5368752 5368806 5368805 5368806 5368807 10737418 10737418 999999 0 5368773 5368774 5368775 5368774 5368761 5368762 5368761 5368760 5368789 5368790 5368789 5368788 
5368709 5368709 5368709 5368709 5368709 5368709 5368709 5368709 5368709 5368709 5368709 5368709 5368709 5368709 5368709 5368709 5368709 5368709 5368709 5368709 5368709 5368709 5368709 5368709 5368709 5368837 5368838 5368837 5368836 5368794 5368793 5368792 5368793 5368715 5368716 5368715 5368714 5368758 5368759 5368758 5368757 5368750 5368751 5368752 5368751 5368805 5368804 5368805 5368806 0 10737418 10737418 999999 5368772 5368773 5368774 5368773 5368760 5368761 5368760 5368759 5368788 5368789 5368788 5368787 
5368709 5368709 5368709 5368709 5368709 5368709 5368709 5368709 5368709 5368709 5368709 5368709 5368709 5368709 5368709 5368709 5368709 5368709 5368709 5368709 5368709 5368709 5368709 5368709 5368709 5368775 5368776 5368775 5368774 5368812 5368811 5368810 5368811 5368777 5368778 5368777 5368776 5368776 5368777 5368776 5368775 5368738 5368739 5368740 5368739 5368743 5368742 5368743 5368744 5368773 5368774 5368773 5368772 999999 0 10737418 10737418 5368778 5368779 5368778 5368777 5368806 5368807 5368806 5368805 
5368709 5368709 5368709 5368709 5368709 5368709 5368709 5368709 5368709 5368709 5368709 5368709 5368709 5368709 5368709 5368709 5368709 5368709 5368709 5368709 5368709 5368709 5368709 5368709 5368709 5368774 5368775 5368774 5368773 5368811 5368810 5368809 5368810 5368776 5368777 5368776 5368775 5368775 5368776 5368775 5368774 5368737 5368738 5368739 5368738 5368742 5368741 5368742 5368743 5368772 5368773 5368772 5368771 10737418 999999 0 10737418 5368777 5368778 5368777 5368776 5368805 5368806 5368805 5368804 
5368709 5368709 5368709 5368709 5368709 5368709 5368709 5368709 5368709 5368709 5368709 5368709 5368709 5368709 5368709 5368709 5368709 5368709 5368709 5368709 5368709 5368709 5368709 5368709 5368709 5368773 5368774 5368773 5368772 5368812 5368811 5368810 5368811 5368777 5368778 5368777 5368776 5368776 5368777 5368776 5368775 5368738 5368739 5368740 5368739 5368741 5368740 5368741 5368742 5368773 5368774 5368773 5368772 10737418 10737418 999999 0 5368778 5368779 5368778 5368777 5368806 5368807 5368806 5368805 
5368709 5368709 5368709 5368709 5368709 5368709 5368709 5368709 5368709 5368709 5368709 5368709 5368709 5368709 5368709 5368709 5368709 5368709 5368709 5368709 5368709 5368709 5368709 5368709 5368709 5368774 5368775 5368774 5368773 5368813 5368812 5368811 5368812 5368778 5368779 5368778 5368777 5368777 5368778 5368777 5368776 5368739 5368740 5368741 5368740 5368742 5368741 5368742 5368743 5368774 5368775 5368774 5368773 0 10737418 10737418 999999 5368779 5368780 5368779 5368778 5368807 5368808 5368807 5368806 
5368709 5368709 5368709 5368709 5368709 5368709 5368709 5368709 5368709 5368709 5368709 5368709 5368709 5368709 5368709 5368709 5368709 5368709 5368709 5368709 5368709 5368709 5368709 5368709 5368709 5368841 5368842 5368841 5368840 5368758 5368757 5368756 5368757 5368763 5368764 5368763 5368762 5368728 5368729 5368728 5368727 5368754 5368755 5368756 5368755 5368809 5368808 5368809 5368810 5368759 5368760 5368759 5368758 5368776 5368777 5368778 5368777 999999 0 10737418 10737418 5368752 5368753 5368752 5368751 
5368709 5368709 5368709 5368709 5368709 5368709 5368709 5368709 5368709 5368709 5368709 5368709 5368709 5368709 5368709 5368709 5368709 5368709 5368709 5368709 5368709 5368709 5368709 5368709 5368709 5368842 5368843 5368842 5368841 5368759 5368758 5368757 5368758 5368764 5368765 5368764 5368763 5368729 5368730 5368729 5368728 5368755 5368756 5368757 5368756 5368810 5368809 5368810 5368811 5368760 5368761 5368760 5368759 5368777 5368778 5368779 5368778 10737418 999999 0 10737418 5368753 5368754 5368753 5368752 
5368709 5368709 5368709 5368709 5368709 5368709 5368709 5368709 5368709 5368709 5368709 5368709 5368709 5368709 5368709 5368709 5368709 5368709 5368709 5368709 5368709 5368709 5368709 5368709 5368709 5368843 5368844 5368843 5368842 5368760 5368759 5368758 5368759 5368765 5368766 5368765 5368764 5368730 5368731 5368730 5368729 5368756 5368757 5368758 5368757 5368811 5368810 5368811 5368812 5368761 5368762 5368761 5368760 5368778 5368779 5368780 5368779 10737418 10737418 999999 0 5368754 5368755 5368754 5368753 
5368709 5368709 5368709 5368709 5368709 5368709 5368709 5368709 5368709 5368709 5368709 5368709 5368709 5368709 5368709 5368709 5368709 5368709 5368709 5368709 5368709 5368709 5368709 5368709 5368709 5368842 5368843 5368842 5368841 5368759 5368758 5368757 5368758 5368764 5368765 5368764 5368763 5368729 5368730 5368729 5368728 5368755 5368756 5368757 5368756 5368810 5368809 5368810 5368811 5368760 5368761 5368760 5368759 5368777 5368778 5368779 5368778 0 10737418 10737418 999999 5368753 5368754 5368753 5368752 
5368709 5368709 5368709 5368709 5368709 5368709 5368709 5368709 5368709 5368709 5368709 5368709 5368709 5368709 5368709 5368709 5368709 5368709 5368709 5368709 5368709 5368709 5368709 5368709 5368709 5368869 5368870 5368869 5368868 5368716 5368715 5368714 5368715 5368791 5368792 5368791 5368790 5368756 5368757 5368756 5368755 5368782 5368783 5368784 5368783 5368837 5368836 5368837 5368838 5368787 5368788 5368787 5368786 5368804 5368805 5368806 5368805 5368752 5368753 5368752 5368751 999999 0 10737418 10737418 
5368709 5368709 5368709 5368709 5368709 5368709 5368709 5368709 5368709 5368709 5368709 5368709 5368709 5368709 5368709 5368709 5368709 5368709 5368709 5368709 5368709 5368709 5368709 5368709 5368709 5368870 5368871 5368870 5368869 5368715 5368714 5368713 5368714 5368792 5368793 5368792 5368791 5368757 5368758 5368757 5368756 5368783 5368784 5368785 5368784 5368838 5368837 5368838 5368839 5368788 5368789 5368788 5368787 5368805 5368806 5368807 5368806 5368753 5368754 5368753 5368752 10737418 999999 0 10737418 
5368709 5368709 5368709 5368709 5368709 5368709 5368709 5368709 5368709 5368709 5368709 5368709 5368709 5368709 5368709 5368709 5368709 5368709 5368709 5368709 5368709 5368709 5368709 5368709 5368709 5368871 5368872 5368871 5368870 5368716 5368715 5368714 5368715 5368793 5368794 5368793 5368792 5368758 5368759 5368758 5368757 5368784 5368785 5368786 5368785 5368839 5368838 5368839 5368840 5368789 5368790 5368789 5368788 5368806 5368807 5368808 5368807 5368754 5368755 5368754 5368753 10737418 10737418 999999 0 
5368709 5368709 5368709 5368709 5368709 5368709 5368709 5368709 5368709 5368709 5368709 5368709 5368709 5368709 5368709 5368709 5368709 5368709 5368709 5368709 5368709 5368709 5368709 5368709 5368709 5368870 5368871 5368870 5368869 5368717 5368716 5368715 5368716 5368792 5368793 5368792 5368791 5368757 5368758 5368757 5368756 5368783 5368784 5368785 5368784 5368838 5368837 5368838 5368839 5368788 5368789 5368788 5368787 5368805 5368806 5368807 5368806 5368753 5368754 5368753 5368752 0 10737418 10737418 999999 
EOF
