pRobustCbss/GLKH-1.1/TMP/mtspf.pid3611.tour
NAME : mtspf.pid3611.gtsp.187904887.tour
COMMENT : Length = 187904887
COMMENT : Found by LKH [Keld Helsgaun] Thu Feb  6 17:46:16 2025
TYPE : TOUR
DIMENSION : 65
TOUR_SECTION
1
15
10
16
9
21
29
26
27
28
19
54
55
56
57
20
13
38
39
40
41
5
17
18
6
61
58
59
60
3
8
2
14
12
50
51
52
53
37
34
35
36
4
47
48
49
46
23
11
25
45
42
43
44
22
7
63
64
65
62
32
33
30
31
24
-1
EOF
